(set-info :origin "SVCOMP13 benchmarks generated by Arie Gurfinkel")
(set-info :status unsat)
(set-logic HORN)
(declare-fun cp-rel-entry () Bool)
(declare-fun cp-rel-__UFO__0
             (Real
              Real
              Real
              Real
              Real
              Real
              Real
              Real
              Real
              Real
              Real
              Real
              Real
              Real
              Real
              Real
              Real
              Real
              Real
              Bool
              Real
              Bool
              Real
              Bool
              Real
              Real)
             Bool)
(declare-fun cp-rel-bb1.i.i.i.i.i60.i.i () Bool)
(declare-fun cp-rel-bb.i
             (Real
              Real
              Real
              Real
              Real
              Real
              Real
              Real
              Real
              Real
              Real
              Real
              Real
              Real
              Real
              Real
              Real
              Real
              Real)
             Bool)
(assert |cp-rel-entry|)
(assert (forall ((?A Real) (?B Real) (?C Real) (?D Real) (?E Real) (?F Real) (?G Real) (?H Real) (?I Real) (?J Real) (?K Real) (?L Real) (?M Real) (?N Real) (?O Real) (?P Real) (?Q Real) (?R Real) (?S Real) (?T Bool) )(let (($x85296 (|cp-rel-bb.i| ?A ?B ?C ?D ?E ?F ?G ?H ?I ?J ?K ?L ?M ?N ?O ?P ?Q ?R ?S)))
(let (($x523966 (= ?T true)))
(let (($x325707 (and |cp-rel-entry| (<= ?S 0.0) (>= ?R 0.0) (<= ?R 0.0) (>= ?Q 0.0) (<= ?Q 0.0) (>= ?P 0.0) (<= ?P 0.0) (>= ?O 456.0) (<= ?O 456.0) (>= ?N 123.0) (<= ?N 123.0) (>= ?M 0.0) (<= ?M 0.0) (>= ?L 0.0) (<= ?L 0.0) (>= ?K 0.0) (<= ?K 0.0) (>= ?J 0.0) (<= ?J 0.0) (>= ?I 0.0) (<= ?I 0.0) (>= ?H 0.0) (<= ?H 0.0) (>= ?G 0.0) (<= ?G 0.0) (>= ?F 0.0) (<= ?F 0.0) (>= ?E 0.0) (<= ?E 0.0) (>= ?D 0.0) (<= ?D 0.0) (>= ?C 0.0) (<= ?C 0.0) (>= ?B 0.0) (<= ?B 0.0) (>= ?A 0.0) (<= ?A 0.0) $x523966 (>= ?S 0.0))))
(=> $x325707 $x85296)))))
)
(assert (forall ((?A Real) (?B Real) (?C Real) (?D Real) (?E Real) (?F Real) (?G Real) (?H Real) (?I Real) (?J Real) (?K Real) (?L Real) (?M Real) (?N Real) (?O Real) (?P Real) (?Q Real) (?R Real) (?S Real) (?T Real) (?U Real) (?V Real) (?W Real) (?X Real) (?Y Real) (?Z Real) (?A1 Real) (?B1 Real) (?C1 Real) (?D1 Real) (?E1 Real) (?F1 Real) (?G1 Real) (?H1 Real) (?I1 Real) (?J1 Real) (?K1 Real) (?L1 Real) (?M1 Bool) (?N1 Bool) (?O1 Bool) (?P1 Bool) (?Q1 Bool) (?R1 Bool) (?S1 Bool) (?T1 Bool) (?U1 Bool) (?V1 Bool) (?W1 Bool) (?X1 Bool) (?Y1 Bool) (?Z1 Bool) (?A2 Bool) (?B2 Bool) (?C2 Bool) (?D2 Bool) (?E2 Bool) (?F2 Bool) (?G2 Bool) (?H2 Bool) (?I2 Bool) (?J2 Bool) (?K2 Bool) (?L2 Bool) (?M2 Bool) (?N2 Bool) (?O2 Bool) (?P2 Bool) (?Q2 Bool) (?R2 Bool) (?S2 Bool) (?T2 Bool) (?U2 Bool) (?V2 Bool) (?W2 Bool) (?X2 Bool) (?Y2 Bool) (?Z2 Bool) (?A3 Bool) (?B3 Bool) (?C3 Bool) (?D3 Bool) (?E3 Bool) (?F3 Bool) (?G3 Bool) (?H3 Bool) (?I3 Bool) (?J3 Bool) (?K3 Bool) (?L3 Bool) (?M3 Bool) (?N3 Bool) (?O3 Bool) (?P3 Bool) (?Q3 Bool) (?R3 Bool) (?S3 Bool) (?T3 Bool) (?U3 Bool) (?V3 Bool) (?W3 Bool) (?X3 Bool) (?Y3 Bool) (?Z3 Bool) (?A4 Bool) (?B4 Bool) (?C4 Bool) (?D4 Bool) (?E4 Bool) (?F4 Bool) (?G4 Bool) (?H4 Bool) (?I4 Bool) (?J4 Bool) (?K4 Bool) (?L4 Bool) (?M4 Bool) (?N4 Bool) (?O4 Real) (?P4 Real) (?Q4 Real) (?R4 Real) (?S4 Real) (?T4 Real) (?U4 Real) (?V4 Real) (?W4 Real) (?X4 Real) (?Y4 Real) (?Z4 Real) )(let (($x572706 (|cp-rel-bb.i| ?T ?U ?V ?W ?X ?Y ?Z ?A1 ?B1 ?C1 ?D1 ?E1 ?F1 ?G1 ?H1 ?I1 ?J1 ?K1 ?L1)))
(let (($x303429 (or (not ?P3) (and ?L3 ?Q3 ?R3))))
(let (($x153731 (or (not ?P3) ?Q3)))
(let (($x438785 (not ?K4)))
(let (($x174830 (or $x438785 ?L4)))
(let (($x286828 (>= ?L1 ?S)))
(let (($x482305 (<= ?L1 ?S)))
(let (($x498113 (>= ?J1 ?Q)))
(let (($x908014 (<= ?J1 ?Q)))
(let (($x362141 (>= ?H1 ?O)))
(let (($x357971 (<= ?H1 ?O)))
(let (($x299833 (>= ?G1 ?N)))
(let (($x10446 (<= ?G1 ?N)))
(let (($x311377 (>= ?F1 ?M)))
(let (($x334431 (<= ?F1 ?M)))
(let (($x33837 (>= ?D1 ?K)))
(let (($x865081 (<= ?D1 ?K)))
(let (($x606467 (>= ?C1 ?J)))
(let (($x36056 (<= ?C1 ?J)))
(let (($x211223 (>= ?B1 ?I)))
(let (($x134271 (<= ?B1 ?I)))
(let (($x555414 (>= ?A1 ?H)))
(let (($x55321 (<= ?A1 ?H)))
(let (($x112892 (>= ?Z ?G)))
(let (($x875042 (<= ?Z ?G)))
(let (($x196238 (>= ?Y ?F)))
(let (($x19019 (<= ?Y ?F)))
(let (($x479636 (>= ?X ?E)))
(let (($x671742 (<= ?X ?E)))
(let (($x191023 (>= ?W ?D)))
(let (($x919595 (<= ?W ?D)))
(let (($x323929 (>= ?V ?C)))
(let (($x462649 (<= ?V ?C)))
(let (($x295181 (>= ?U ?B)))
(let (($x83204 (<= ?U ?B)))
(let (($x471589 (>= ?T ?O4)))
(let (($x419827 (<= ?T ?O4)))
(let (($x528724 (and ?X1 $x419827 $x471589 $x83204 $x295181 $x462649 $x323929 $x919595 $x191023 $x671742 $x479636 $x19019 $x196238 $x875042 $x112892 $x55321 $x555414 $x134271 $x211223 $x36056 $x606467 $x865081 $x33837 (<= ?E1 1.0) (>= ?E1 1.0) $x334431 $x311377 $x10446 $x299833 $x357971 $x362141 (<= ?I1 2.0) (>= ?I1 2.0) $x908014 $x498113 (<= ?K1 456.0) (>= ?K1 456.0) $x482305 $x286828)))
(let (($x311313 (>= ?K1 ?R)))
(let (($x613095 (<= ?K1 ?R)))
(let (($x352925 (>= ?I1 ?P)))
(let (($x291581 (<= ?I1 ?P)))
(let (($x447018 (>= ?E1 ?L)))
(let (($x153137 (<= ?E1 ?L)))
(let (($x107735 (and ?Z1 (not ?E2) $x419827 $x471589 $x83204 $x295181 $x462649 $x323929 $x919595 $x191023 $x671742 $x479636 $x19019 $x196238 $x875042 $x112892 $x55321 $x555414 $x134271 $x211223 $x36056 $x606467 (<= ?D1 1.0) (>= ?D1 1.0) $x153137 $x447018 (<= ?F1 1.0) (>= ?F1 1.0) $x10446 $x299833 $x357971 $x362141 $x291581 $x352925 $x908014 $x498113 $x613095 $x311313 $x482305 $x286828)))
(let (($x505963 (and ?G2 (not ?L2) $x419827 $x471589 $x83204 $x295181 $x462649 $x323929 $x919595 $x191023 $x671742 $x479636 $x19019 $x196238 $x875042 $x112892 $x55321 $x555414 $x134271 $x211223 (<= ?C1 1.0) (>= ?C1 1.0) $x865081 $x33837 $x153137 $x447018 $x334431 $x311377 $x10446 $x299833 (<= ?H1 0.0) (>= ?H1 0.0) $x291581 $x352925 $x908014 $x498113 $x613095 $x311313 $x482305 $x286828)))
(let (($x32945 (and ?N2 (not ?S2) $x419827 $x471589 $x83204 $x295181 $x462649 $x323929 $x919595 $x191023 $x671742 $x479636 $x19019 $x196238 $x875042 $x112892 $x55321 $x555414 (<= ?B1 1.0) (>= ?B1 1.0) $x36056 $x606467 $x865081 $x33837 $x153137 $x447018 $x334431 $x311377 $x10446 $x299833 $x357971 $x362141 $x291581 $x352925 (<= ?J1 1.0) (>= ?J1 1.0) $x613095 $x311313 (<= ?L1 123.0) (>= ?L1 123.0))))
(let (($x398828 (and ?U2 (not ?Z2) $x419827 $x471589 $x83204 $x295181 $x462649 $x323929 $x919595 $x191023 $x671742 $x479636 $x19019 $x196238 $x875042 $x112892 (<= ?A1 1.0) (>= ?A1 1.0) $x134271 $x211223 $x36056 $x606467 $x865081 $x33837 $x153137 $x447018 $x334431 $x311377 $x10446 $x299833 $x357971 $x362141 $x291581 $x352925 $x908014 $x498113 $x613095 $x311313 $x482305 $x286828)))
(let (($x411588 (not ?G3)))
(let (($x477141 (and ?B3 $x411588 $x419827 $x471589 $x83204 $x295181 $x462649 $x323929 $x919595 $x191023 $x671742 $x479636 $x19019 $x196238 (<= ?Z 1.0) (>= ?Z 1.0) $x55321 $x555414 $x134271 $x211223 $x36056 $x606467 $x865081 $x33837 $x153137 $x447018 $x334431 $x311377 $x10446 $x299833 $x357971 $x362141 $x291581 $x352925 $x908014 $x498113 $x613095 $x311313 $x482305 $x286828)))
(let (($x505817 (not ?N3)))
(let (($x625795 (and ?I3 $x505817 $x419827 $x471589 $x83204 $x295181 $x462649 $x323929 $x919595 $x191023 $x671742 $x479636 (<= ?Y 1.0) (>= ?Y 1.0) $x875042 $x112892 $x55321 $x555414 $x134271 $x211223 $x36056 $x606467 $x865081 $x33837 $x153137 $x447018 $x334431 $x311377 $x10446 $x299833 (<= ?H1 666.0) (>= ?H1 666.0) $x291581 $x352925 $x908014 $x498113 $x613095 $x311313 $x482305 $x286828)))
(let (($x920487 (not ?U3)))
(let (($x837693 (and ?P3 $x920487 $x419827 $x471589 $x83204 $x295181 $x462649 $x323929 $x919595 $x191023 (<= ?X 1.0) (>= ?X 1.0) $x19019 $x196238 $x875042 $x112892 $x55321 $x555414 $x134271 $x211223 $x36056 $x606467 $x865081 $x33837 $x153137 $x447018 $x334431 $x311377 $x10446 $x299833 $x357971 $x362141 $x291581 $x352925 $x908014 $x498113 $x613095 $x311313 $x482305 $x286828)))
(let (($x387110 (not ?B4)))
(let (($x478159 (and ?W3 $x387110 $x419827 $x471589 $x83204 $x295181 $x462649 $x323929 (<= ?W 1.0) (>= ?W 1.0) $x671742 $x479636 $x19019 $x196238 $x875042 $x112892 $x55321 $x555414 $x134271 $x211223 $x36056 $x606467 $x865081 $x33837 $x153137 $x447018 $x334431 $x311377 $x10446 $x299833 $x357971 $x362141 $x291581 $x352925 $x908014 $x498113 $x613095 $x311313 $x482305 $x286828)))
(let (($x421555 (not ?I4)))
(let (($x505921 (and ?D4 $x421555 $x419827 $x471589 $x83204 $x295181 (<= ?V 1.0) (>= ?V 1.0) $x919595 $x191023 $x671742 $x479636 $x19019 $x196238 $x875042 $x112892 $x55321 $x555414 $x134271 $x211223 $x36056 $x606467 $x865081 $x33837 $x153137 $x447018 $x334431 $x311377 (<= ?G1 777.0) (>= ?G1 777.0) $x357971 $x362141 $x291581 $x352925 $x908014 $x498113 $x613095 $x311313 $x482305 $x286828)))
(let (($x821026 (and ?K4 (not ?N4) $x419827 $x471589 (<= ?U 1.0) (>= ?U 1.0) $x462649 $x323929 $x919595 $x191023 $x671742 $x479636 $x19019 $x196238 $x875042 $x112892 $x55321 $x555414 $x134271 $x211223 $x36056 $x606467 $x865081 $x33837 $x153137 $x447018 $x334431 $x311377 $x10446 $x299833 $x357971 $x362141 $x291581 $x352925 $x908014 $x498113 $x613095 $x311313 $x482305 $x286828)))
(let (($x392889 (|cp-rel-bb.i| ?A ?B ?C ?D ?E ?F ?G ?H ?I ?J ?K ?L ?M ?N ?O ?P ?Q ?R ?S)))
(let (($x159005 (and $x392889 (= ?M4 (= ?B 0.0)) (= ?I4 (= ?Y4 0.0)) (= ?F4 (= ?C 0.0)) (= ?B4 (= ?X4 0.0)) (= ?Y3 (= ?D 0.0)) (= ?U3 (= ?W4 0.0)) (= ?R3 (= ?E 0.0)) (= ?N3 (= ?V4 0.0)) (= ?K3 (= ?F 0.0)) (= ?G3 (= ?U4 0.0)) (= ?D3 (= ?G 0.0)) (= ?Z2 (= ?T4 0.0)) (= ?W2 (= ?H 0.0)) (= ?S2 (= ?S4 0.0)) (= ?P2 (= ?I 0.0)) (= ?L2 (= ?R4 0.0)) (= ?I2 (= ?J 0.0)) (= ?E2 (= ?Q4 0.0)) (= ?B2 (= ?K 0.0)) (= ?V1 (= ?P4 0.0)) (= ?S1 (= ?L 0.0)) (= ?O4 (+ 1.0 ?A)) (= ?P1 (not (<= ?A 3.0))) (or $x821026 $x505921 $x478159 $x837693 $x625795 $x477141 $x398828 $x32945 $x505963 $x107735 $x528724) $x174830 (or $x438785 (and ?G4 ?L4 ?M4)) (or (not ?G4) (and ?H4 (not ?J4)) (and ?J4 (not ?H4))) (or (not ?G4) (and ?D4 ?H4 ?I4) (and ?Z3 ?J4 (not ?F4))) (or (not ?D4) ?E4) (or (not ?D4) (and ?Z3 ?E4 ?F4)) (or (not ?Z3) (and ?A4 (not ?C4)) (and ?C4 (not ?A4))) (or (not ?Z3) (and ?W3 ?A4 ?B4) (and ?S3 ?C4 (not ?Y3))) (or (not ?W3) ?X3) (or (not ?W3) (and ?S3 ?X3 ?Y3)) (or (not ?S3) (and ?T3 (not ?V3)) (and ?V3 (not ?T3))) (or (not ?S3) (and ?P3 ?T3 ?U3) (and ?L3 ?V3 (not ?R3))) $x153731 $x303429 (or (not ?L3) (and ?M3 (not ?O3)) (and ?O3 (not ?M3))) (or (not ?L3) (and ?I3 ?M3 ?N3) (and ?E3 ?O3 (not ?K3))) (or (not ?I3) ?J3) (or (not ?I3) (and ?E3 ?J3 ?K3)) (or (not ?E3) (and ?F3 (not ?H3)) (and ?H3 (not ?F3))) (or (not ?E3) (and ?B3 ?F3 ?G3) (and ?X2 ?H3 (not ?D3))) (or (not ?B3) ?C3) (or (not ?B3) (and ?X2 ?C3 ?D3)) (or (not ?X2) (and ?Y2 (not ?A3)) (and ?A3 (not ?Y2))) (or (not ?X2) (and ?U2 ?Y2 ?Z2) (and ?Q2 ?A3 (not ?W2))) (or (not ?U2) ?V2) (or (not ?U2) (and ?Q2 ?V2 ?W2)) (or (not ?Q2) (and ?R2 (not ?T2)) (and ?T2 (not ?R2))) (or (not ?Q2) (and ?N2 ?R2 ?S2) (and ?J2 ?T2 (not ?P2))) (or (not ?N2) ?O2) (or (not ?N2) (and ?J2 ?O2 ?P2)) (or (not ?J2) (and ?K2 (not ?M2)) (and ?M2 (not ?K2))) (or (not ?J2) (and ?G2 ?K2 ?L2) (and ?C2 ?M2 (not ?I2))) (or (not ?G2) ?H2) (or (not ?G2) (and ?C2 ?H2 ?I2)) (or (not ?C2) (and ?D2 (not ?F2)) (and ?F2 (not ?D2))) (or (not ?C2) (and ?Z1 ?D2 ?E2) (and ?T1 ?F2 (not ?B2))) (or (not ?Z1) ?A2) (or (not ?Z1) (and ?T1 ?A2 ?B2)) (or (not ?X1) ?Y1) (or (not ?X1) (and ?Q1 ?Y1 (not ?V1))) (or (not ?T1) (and ?U1 (not ?W1)) (and ?W1 (not ?U1))) (or (not ?T1) (and ?Q1 ?U1 ?V1) (and ?M1 ?W1 (not ?S1))) (or (not ?Q1) ?R1) (or (not ?Q1) (and ?M1 ?R1 ?S1)) (or (not ?M1) ?O1) (or (not ?M1) (and ?N1 ?O1 (not ?P1))) (= ?N4 (= ?Z4 0.0)))))
(=> $x159005 $x572706)))))))))))))))))))))))))))))))))))))))))))))))))))))))))))))))
)
(assert (forall ((?A Real) (?B Real) (?C Real) (?D Real) (?E Real) (?F Real) (?G Real) (?H Real) (?I Real) (?J Real) (?K Real) (?L Real) (?M Real) (?N Real) (?O Real) (?P Real) (?Q Real) (?R Real) (?S Real) (?T Bool) (?U Bool) (?V Bool) (?W Bool) (?X Bool) (?Y Bool) (?Z Bool) (?A1 Bool) (?B1 Bool) (?C1 Bool) (?D1 Bool) (?E1 Bool) (?F1 Bool) (?G1 Bool) (?H1 Bool) (?I1 Bool) (?J1 Bool) (?K1 Bool) (?L1 Bool) (?M1 Bool) (?N1 Bool) (?O1 Bool) (?P1 Bool) (?Q1 Bool) (?R1 Bool) (?S1 Bool) (?T1 Bool) (?U1 Bool) (?V1 Bool) (?W1 Bool) (?X1 Bool) (?Y1 Bool) (?Z1 Bool) (?A2 Bool) (?B2 Bool) (?C2 Bool) (?D2 Bool) (?E2 Bool) (?F2 Bool) (?G2 Bool) (?H2 Bool) (?I2 Bool) (?J2 Bool) (?K2 Bool) (?L2 Bool) (?M2 Bool) (?N2 Bool) (?O2 Bool) (?P2 Bool) (?Q2 Bool) (?R2 Bool) (?S2 Bool) (?T2 Bool) (?U2 Bool) (?V2 Bool) (?W2 Bool) (?X2 Bool) (?Y2 Bool) (?Z2 Bool) (?A3 Bool) (?B3 Bool) (?C3 Bool) (?D3 Bool) (?E3 Bool) (?F3 Bool) (?G3 Bool) (?H3 Bool) (?I3 Bool) (?J3 Bool) (?K3 Bool) (?L3 Bool) (?M3 Bool) (?N3 Bool) (?O3 Bool) (?P3 Bool) (?Q3 Bool) (?R3 Bool) (?S3 Bool) (?T3 Real) (?U3 Real) (?V3 Real) (?W3 Real) (?X3 Real) (?Y3 Real) (?Z3 Real) (?A4 Real) (?B4 Real) (?C4 Real) (?D4 Real) (?E4 Real) (?F4 Bool) (?G4 Real) (?H4 Bool) (?I4 Real) (?J4 Bool) (?K4 Real) (?L4 Real) (?M4 Bool) (?N4 Bool) (?O4 Bool) (?P4 Bool) (?Q4 Bool) (?R4 Bool) (?S4 Bool) (?T4 Bool) (?U4 Bool) (?V4 Bool) (?W4 Bool) (?X4 Real) (?Y4 Real) (?Z4 Bool) (?A5 Bool) (?B5 Real) (?C5 Real) (?D5 Bool) (?E5 Bool) (?F5 Bool) (?G5 Bool) (?H5 Bool) (?I5 Bool) (?J5 Bool) (?K5 Bool) (?L5 Bool) (?M5 Bool) (?N5 Bool) (?O5 Bool) (?P5 Bool) (?Q5 Bool) (?R5 Bool) (?S5 Bool) (?T5 Bool) (?U5 Bool) (?V5 Bool) (?W5 Bool) (?X5 Bool) (?Y5 Real) (?Z5 Bool) (?A6 Real) (?B6 Bool) (?C6 Bool) (?D6 Bool) (?E6 Bool) (?F6 Bool) (?G6 Bool) (?H6 Bool) (?I6 Real) (?J6 Bool) (?K6 Bool) (?L6 Bool) (?M6 Bool) (?N6 Bool) (?O6 Real) (?P6 Real) (?Q6 Bool) (?R6 Bool) (?S6 Bool) (?T6 Real) (?U6 Bool) (?V6 Bool) (?W6 Bool) (?X6 Bool) (?Y6 Bool) (?Z6 Bool) )(let (($x62532 (|cp-rel-__UFO__0| ?A ?B ?C ?D ?E ?F ?G ?H ?I ?J ?K ?L ?M ?N ?O ?P ?Q ?R ?S ?F4 ?G4 ?H4 ?I4 ?J4 ?K4 ?L4)))
(let (($x178561 (not ?M4)))
(let (($x359971 (or $x178561 (and ?P3 ?N4 ?S3) (and ?L3 ?O4 (not ?R3)) (and ?U ?P4 ?W))))
(let (($x212496 (or $x178561 (and ?N4 (not ?O4) (not ?P4)) (and ?O4 (not ?N4) (not ?P4)) (and ?P4 (not ?N4) (not ?O4)))))
(let (($x633197 (and ?T4 ?Z4 ?A5 (<= ?X4 ?B5) (>= ?X4 ?B5) (<= ?Y4 ?C5) (>= ?Y4 ?C5))))
(let (($x537127 (and ?Q4 ?W4 ?H4 (<= ?X4 ?I4) (>= ?X4 ?I4) (<= ?Y4 ?G4) (>= ?Y4 ?G4))))
(let (($x372139 (and ?T4 ?K5 (not ?A5) (<= ?K4 ?I4) (>= ?K4 ?I4) (<= ?L4 ?G4) (>= ?L4 ?G4))))
(let (($x205903 (not ?H4)))
(let (($x123684 (and ?Q4 ?J5 $x205903 (<= ?K4 ?I4) (>= ?K4 ?I4) (<= ?L4 ?G4) (>= ?L4 ?G4))))
(let (($x115518 (and ?V4 ?I5 ?F5 (<= ?K4 ?X4) (>= ?K4 ?X4) (<= ?L4 ?Y4) (>= ?L4 ?Y4))))
(let (($x735180 (and ?D5 ?H5 (<= ?K4 ?X4) (>= ?K4 ?X4) (<= ?L4 ?Y4) (>= ?L4 ?Y4))))
(let (($x411588 (not ?G5)))
(let (($x580568 (or $x411588 (and ?H5 (not ?I5) (not ?J5) (not ?K5)) (and ?I5 (not ?H5) (not ?J5) (not ?K5)) (and ?J5 (not ?H5) (not ?I5) (not ?K5)) (and ?K5 (not ?H5) (not ?I5) (not ?J5)))))
(let (($x130201 (not ?W5)))
(let (($x447057 (or $x130201 (and ?T5 ?X5 (<= ?Y5 0.0) (>= ?Y5 0.0)) (and ?Q5 ?Z5 ?V5 (<= ?Y5 ?A6) (>= ?Y5 ?A6)) (and ?O5 ?B6 ?S5 (<= ?Y5 ?A6) (>= ?Y5 ?A6)))))
(let (($x630775 (or $x130201 (and ?X5 (not ?Z5) (not ?B6)) (and ?Z5 (not ?X5) (not ?B6)) (and ?B6 (not ?X5) (not ?Z5)))))
(let (($x466967 (not ?C6)))
(let (($x6426 (or $x466967 ?D6)))
(let (($x84369 (|cp-rel-bb.i| ?A ?B ?C ?D ?E ?F ?G ?H ?I ?J ?K ?L ?M ?N ?O ?P ?Q ?R ?S)))
(let (($x701511 (and $x84369 (= ?Z6 (= ?R 0.0)) (= ?Y6 (not ?X6)) (= ?X6 (and ?W6 ?F4)) (= ?W6 (= ?Y5 0.0)) (= ?V5 (or ?V6 ?U6)) (= ?V6 (not (= ?N ?T6))) (= ?U6 (= ?T6 0.0)) (= ?S5 (= ?A6 0.0)) (= ?A6 (ite ?S6 ?K4 1.0)) (= ?T6 (ite ?S6 ?L4 ?S)) (= ?S6 (or ?R6 ?Q6)) (= ?R6 (= ?S 0.0)) (= ?Q6 (not (= ?Q 1.0))) (= ?P6 (ite ?J4 ?N ?O)) (= ?N5 (= ?M 0.0)) (= ?F5 (= ?O6 0.0)) (= ?O6 (ite ?N6 ?S 0.0)) (= ?N6 (= ?Q 1.0)) (= ?C5 (ite ?L6 ?G4 0.0)) (= ?B5 (ite ?L6 ?I4 0.0)) (= ?A5 (or ?H4 ?M6)) (= ?M6 (not ?L6)) (= ?L6 (or ?K6 ?H4)) (= ?K6 (or ?J6 ?J4)) (= ?J6 (not (= ?O ?G4))) (= ?S4 (or ?H4 ?J4)) (= ?J4 (= ?O 0.0)) (= ?I6 (ite ?H4 1.0 0.0)) (= ?H4 (= ?G4 0.0)) (= ?G4 (ite ?F4 ?R 0.0)) (= ?F4 (= ?P 2.0)) (= ?S3 (= ?E4 0.0)) (= ?R3 (= ?B 0.0)) (= ?N3 (= ?D4 0.0)) (= ?K3 (= ?C 0.0)) (= ?G3 (= ?C4 0.0)) (= ?D3 (= ?D 0.0)) (= ?Z2 (= ?B4 0.0)) (= ?W2 (= ?E 0.0)) (= ?S2 (= ?A4 0.0)) (= ?P2 (= ?F 0.0)) (= ?L2 (= ?Z3 0.0)) (= ?I2 (= ?G 0.0)) (= ?E2 (= ?Y3 0.0)) (= ?B2 (= ?H 0.0)) (= ?X1 (= ?X3 0.0)) (= ?U1 (= ?I 0.0)) (= ?Q1 (= ?W3 0.0)) (= ?N1 (= ?J 0.0)) (= ?J1 (= ?V3 0.0)) (= ?G1 (= ?K 0.0)) (= ?C1 (= ?U3 0.0)) (= ?Z (= ?L 0.0)) (= ?T3 (+ 1.0 ?A)) (= ?W (not (<= ?A 3.0))) (or ?F6 (and ?G5 ?N5)) (or (not ?F6) (and ?G6 (not ?H6)) (and ?H6 (not ?G6))) (or (not ?F6) (and ?C6 ?G6) (and ?W5 ?H6 ?E6)) $x6426 (or $x466967 (and ?W5 ?D6 (not ?E6))) $x630775 $x447057 (or (not ?T5) ?U5) (or (not ?T5) (and ?Q5 ?U5 (not ?V5))) (or (not ?Q5) ?R5) (or (not ?Q5) (and ?O5 ?R5 (not ?S5))) (or (not ?O5) ?P5) (or (not ?O5) (and ?L5 ?P5 (not ?J4))) (or (not ?L5) ?M5) (or (not ?L5) (and ?G5 ?M5 (not ?N5))) $x580568 (or $x411588 $x735180 $x115518 $x123684 $x372139) (or (not ?D5) ?E5) (or (not ?D5) (and ?V4 ?E5 (not ?F5))) (or (not ?V4) (and ?W4 (not ?Z4)) (and ?Z4 (not ?W4))) (or (not ?V4) $x537127 $x633197) (or (not ?T4) ?U4) (or (not ?T4) (and ?M4 ?U4 (not ?S4))) (or (not ?Q4) ?R4) (or (not ?Q4) (and ?M4 ?R4 ?S4)) $x212496 $x359971 (or (not ?P3) ?Q3) (or (not ?P3) (and ?L3 ?Q3 ?R3)) (or (not ?L3) (and ?M3 (not ?O3)) (and ?O3 (not ?M3))) (or (not ?L3) (and ?I3 ?M3 ?N3) (and ?E3 ?O3 (not ?K3))) (or (not ?I3) ?J3) (or (not ?I3) (and ?E3 ?J3 ?K3)) (or (not ?E3) (and ?F3 (not ?H3)) (and ?H3 (not ?F3))) (or (not ?E3) (and ?B3 ?F3 ?G3) (and ?X2 ?H3 (not ?D3))) (or (not ?B3) ?C3) (or (not ?B3) (and ?X2 ?C3 ?D3)) (or (not ?X2) (and ?Y2 (not ?A3)) (and ?A3 (not ?Y2))) (or (not ?X2) (and ?U2 ?Y2 ?Z2) (and ?Q2 ?A3 (not ?W2))) (or (not ?U2) ?V2) (or (not ?U2) (and ?Q2 ?V2 ?W2)) (or (not ?Q2) (and ?R2 (not ?T2)) (and ?T2 (not ?R2))) (or (not ?Q2) (and ?N2 ?R2 ?S2) (and ?J2 ?T2 (not ?P2))) (or (not ?N2) ?O2) (or (not ?N2) (and ?J2 ?O2 ?P2)) (or (not ?J2) (and ?K2 (not ?M2)) (and ?M2 (not ?K2))) (or (not ?J2) (and ?G2 ?K2 ?L2) (and ?C2 ?M2 (not ?I2))) (or (not ?G2) ?H2) (or (not ?G2) (and ?C2 ?H2 ?I2)) (or (not ?C2) (and ?D2 (not ?F2)) (and ?F2 (not ?D2))) (or (not ?C2) (and ?Z1 ?D2 ?E2) (and ?V1 ?F2 (not ?B2))) (or (not ?Z1) ?A2) (or (not ?Z1) (and ?V1 ?A2 ?B2)) (or (not ?V1) (and ?W1 (not ?Y1)) (and ?Y1 (not ?W1))) (or (not ?V1) (and ?S1 ?W1 ?X1) (and ?O1 ?Y1 (not ?U1))) (or (not ?S1) ?T1) (or (not ?S1) (and ?O1 ?T1 ?U1)) (or (not ?O1) (and ?P1 (not ?R1)) (and ?R1 (not ?P1))) (or (not ?O1) (and ?L1 ?P1 ?Q1) (and ?H1 ?R1 (not ?N1))) (or (not ?L1) ?M1) (or (not ?L1) (and ?H1 ?M1 ?N1)) (or (not ?H1) (and ?I1 (not ?K1)) (and ?K1 (not ?I1))) (or (not ?H1) (and ?E1 ?I1 ?J1) (and ?A1 ?K1 (not ?G1))) (or (not ?E1) ?F1) (or (not ?E1) (and ?A1 ?F1 ?G1)) (or (not ?A1) (and ?B1 (not ?D1)) (and ?D1 (not ?B1))) (or (not ?A1) (and ?X ?B1 ?C1) (and ?T ?D1 (not ?Z))) (or (not ?X) ?Y) (or (not ?X) (and ?T ?Y ?Z)) (or (not ?T) ?V) (or (not ?T) (and ?U ?V (not ?W))) (= ?E6 (or ?Z6 ?Y6)))))
(=> $x701511 $x62532))))))))))))))))))))))
)
(assert (forall ((?A Bool) (?B Real) (?C Bool) (?D Real) (?E Bool) (?F Real) (?G Real) (?H Real) (?I Real) (?J Real) (?K Real) (?L Real) (?M Real) (?N Real) (?O Real) (?P Real) (?Q Real) (?R Real) (?S Real) (?T Real) (?U Real) (?V Real) (?W Real) (?X Real) (?Y Real) (?Z Real) (?A1 Bool) )(let (($x322447 (|cp-rel-__UFO__0| ?H ?I ?J ?K ?L ?M ?N ?O ?P ?Q ?R ?S ?T ?U ?V ?W ?X ?Y ?Z ?A ?B ?C ?D ?E ?F ?G)))
(=> (and $x322447 (= ?A1 true)) $x322447)))
)
(assert (forall ((?A Real) (?B Real) (?C Real) (?D Real) (?E Real) (?F Real) (?G Real) (?H Real) (?I Real) (?J Real) (?K Real) (?L Real) (?M Real) (?N Real) (?O Real) (?P Real) (?Q Real) (?R Real) (?S Real) (?T Bool) (?U Bool) (?V Bool) (?W Bool) (?X Bool) (?Y Bool) (?Z Bool) (?A1 Bool) (?B1 Bool) (?C1 Bool) (?D1 Bool) (?E1 Bool) (?F1 Bool) (?G1 Bool) (?H1 Bool) (?I1 Bool) (?J1 Bool) (?K1 Bool) (?L1 Bool) (?M1 Bool) (?N1 Bool) (?O1 Bool) (?P1 Bool) (?Q1 Bool) (?R1 Bool) (?S1 Bool) (?T1 Bool) (?U1 Bool) (?V1 Bool) (?W1 Bool) (?X1 Bool) (?Y1 Bool) (?Z1 Bool) (?A2 Bool) (?B2 Bool) (?C2 Bool) (?D2 Bool) (?E2 Bool) (?F2 Bool) (?G2 Bool) (?H2 Bool) (?I2 Bool) (?J2 Bool) (?K2 Bool) (?L2 Bool) (?M2 Bool) (?N2 Bool) (?O2 Bool) (?P2 Bool) (?Q2 Bool) (?R2 Bool) (?S2 Bool) (?T2 Bool) (?U2 Bool) (?V2 Bool) (?W2 Bool) (?X2 Bool) (?Y2 Bool) (?Z2 Bool) (?A3 Bool) (?B3 Bool) (?C3 Bool) (?D3 Bool) (?E3 Bool) (?F3 Bool) (?G3 Bool) (?H3 Bool) (?I3 Bool) (?J3 Bool) (?K3 Bool) (?L3 Bool) (?M3 Bool) (?N3 Bool) (?O3 Bool) (?P3 Bool) (?Q3 Bool) (?R3 Bool) (?S3 Bool) (?T3 Real) (?U3 Real) (?V3 Real) (?W3 Real) (?X3 Real) (?Y3 Real) (?Z3 Real) (?A4 Real) (?B4 Real) (?C4 Real) (?D4 Real) (?E4 Real) (?F4 Bool) (?G4 Real) (?H4 Bool) (?I4 Real) (?J4 Bool) (?K4 Real) (?L4 Real) (?M4 Bool) (?N4 Bool) (?O4 Bool) (?P4 Bool) (?Q4 Bool) (?R4 Bool) (?S4 Bool) (?T4 Bool) (?U4 Bool) (?V4 Bool) (?W4 Bool) (?X4 Real) (?Y4 Real) (?Z4 Bool) (?A5 Bool) (?B5 Real) (?C5 Real) (?D5 Bool) (?E5 Bool) (?F5 Bool) (?G5 Bool) (?H5 Bool) (?I5 Bool) (?J5 Bool) (?K5 Bool) (?L5 Bool) (?M5 Bool) (?N5 Bool) (?O5 Real) (?P5 Real) (?Q5 Bool) (?R5 Bool) (?S5 Bool) (?T5 Bool) (?U5 Bool) (?V5 Real) (?W5 Real) (?X5 Bool) (?Y5 Bool) (?Z5 Bool) (?A6 Real) )(let (($x251090 (not ?M4)))
(let (($x927403 (or $x251090 (and ?P3 ?N4 ?S3) (and ?L3 ?O4 (not ?R3)) (and ?U ?P4 ?W))))
(let (($x302140 (or $x251090 (and ?N4 (not ?O4) (not ?P4)) (and ?O4 (not ?N4) (not ?P4)) (and ?P4 (not ?N4) (not ?O4)))))
(let (($x303429 (or (not ?Q4) (and ?M4 ?R4 ?S4))))
(let (($x153731 (or (not ?Q4) ?R4)))
(let (($x542481 (and ?T4 ?Z4 ?A5 (<= ?X4 ?B5) (>= ?X4 ?B5) (<= ?Y4 ?C5) (>= ?Y4 ?C5))))
(let (($x598941 (and ?Q4 ?W4 ?H4 (<= ?X4 ?I4) (>= ?X4 ?I4) (<= ?Y4 ?G4) (>= ?Y4 ?G4))))
(let (($x920487 (not ?V4)))
(let (($x466967 (not ?D5)))
(let (($x6426 (or $x466967 ?E5)))
(let (($x236236 (not ?A5)))
(let (($x508557 (and ?T4 ?K5 $x236236 (<= ?K4 ?I4) (>= ?K4 ?I4) (<= ?L4 ?G4) (>= ?L4 ?G4))))
(let (($x411588 (not ?H4)))
(let (($x533609 (and ?Q4 ?J5 $x411588 (<= ?K4 ?I4) (>= ?K4 ?I4) (<= ?L4 ?G4) (>= ?L4 ?G4))))
(let (($x924068 (and ?V4 ?I5 ?F5 (<= ?K4 ?X4) (>= ?K4 ?X4) (<= ?L4 ?Y4) (>= ?L4 ?Y4))))
(let (($x26837 (and ?D5 ?H5 (<= ?K4 ?X4) (>= ?K4 ?X4) (<= ?L4 ?Y4) (>= ?L4 ?Y4))))
(let (($x775249 (not ?G5)))
(let (($x250667 (or $x775249 (and ?H5 (not ?I5) (not ?J5) (not ?K5)) (and ?I5 (not ?H5) (not ?J5) (not ?K5)) (and ?J5 (not ?H5) (not ?I5) (not ?K5)) (and ?K5 (not ?H5) (not ?I5) (not ?J5)))))
(let (($x438785 (not ?L5)))
(let (($x174830 (or $x438785 ?M5)))
(let (($x105558 (|cp-rel-bb.i| ?A ?B ?C ?D ?E ?F ?G ?H ?I ?J ?K ?L ?M ?N ?O ?P ?Q ?R ?S)))
(let (($x611520 (and $x105558 (= ?A6 (ite ?Z5 ?L4 ?S)) (= ?Z5 (or ?Y5 ?X5)) (= ?Y5 (= ?S 0.0)) (= ?X5 (not (= ?Q 1.0))) (= ?W5 (ite ?J4 ?N ?O)) (= ?N5 (= ?M 0.0)) (= ?F5 (= ?V5 0.0)) (= ?V5 (ite ?U5 ?S 0.0)) (= ?U5 (= ?Q 1.0)) (= ?C5 (ite ?S5 ?G4 0.0)) (= ?B5 (ite ?S5 ?I4 0.0)) (= ?A5 (or ?H4 ?T5)) (= ?T5 (not ?S5)) (= ?S5 (or ?R5 ?H4)) (= ?R5 (or ?Q5 ?J4)) (= ?Q5 (not (= ?O ?G4))) (= ?S4 (or ?H4 ?J4)) (= ?J4 (= ?O 0.0)) (= ?P5 (ite ?H4 1.0 0.0)) (= ?H4 (= ?G4 0.0)) (= ?G4 (ite ?F4 ?R 0.0)) (= ?F4 (= ?P 2.0)) (= ?S3 (= ?E4 0.0)) (= ?R3 (= ?B 0.0)) (= ?N3 (= ?D4 0.0)) (= ?K3 (= ?C 0.0)) (= ?G3 (= ?C4 0.0)) (= ?D3 (= ?D 0.0)) (= ?Z2 (= ?B4 0.0)) (= ?W2 (= ?E 0.0)) (= ?S2 (= ?A4 0.0)) (= ?P2 (= ?F 0.0)) (= ?L2 (= ?Z3 0.0)) (= ?I2 (= ?G 0.0)) (= ?E2 (= ?Y3 0.0)) (= ?B2 (= ?H 0.0)) (= ?X1 (= ?X3 0.0)) (= ?U1 (= ?I 0.0)) (= ?Q1 (= ?W3 0.0)) (= ?N1 (= ?J 0.0)) (= ?J1 (= ?V3 0.0)) (= ?G1 (= ?K 0.0)) (= ?C1 (= ?U3 0.0)) (= ?Z (= ?L 0.0)) (= ?T3 (+ 1.0 ?A)) (= ?W (not (<= ?A 3.0))) (= ?J4 true) (= ?L5 true) $x174830 (or $x438785 (and ?G5 ?M5 (not ?N5))) $x250667 (or $x775249 $x26837 $x924068 $x533609 $x508557) $x6426 (or $x466967 (and ?V4 ?E5 (not ?F5))) (or $x920487 (and ?W4 (not ?Z4)) (and ?Z4 (not ?W4))) (or $x920487 $x598941 $x542481) (or (not ?T4) ?U4) (or (not ?T4) (and ?M4 ?U4 (not ?S4))) $x153731 $x303429 $x302140 $x927403 (or (not ?P3) ?Q3) (or (not ?P3) (and ?L3 ?Q3 ?R3)) (or (not ?L3) (and ?M3 (not ?O3)) (and ?O3 (not ?M3))) (or (not ?L3) (and ?I3 ?M3 ?N3) (and ?E3 ?O3 (not ?K3))) (or (not ?I3) ?J3) (or (not ?I3) (and ?E3 ?J3 ?K3)) (or (not ?E3) (and ?F3 (not ?H3)) (and ?H3 (not ?F3))) (or (not ?E3) (and ?B3 ?F3 ?G3) (and ?X2 ?H3 (not ?D3))) (or (not ?B3) ?C3) (or (not ?B3) (and ?X2 ?C3 ?D3)) (or (not ?X2) (and ?Y2 (not ?A3)) (and ?A3 (not ?Y2))) (or (not ?X2) (and ?U2 ?Y2 ?Z2) (and ?Q2 ?A3 (not ?W2))) (or (not ?U2) ?V2) (or (not ?U2) (and ?Q2 ?V2 ?W2)) (or (not ?Q2) (and ?R2 (not ?T2)) (and ?T2 (not ?R2))) (or (not ?Q2) (and ?N2 ?R2 ?S2) (and ?J2 ?T2 (not ?P2))) (or (not ?N2) ?O2) (or (not ?N2) (and ?J2 ?O2 ?P2)) (or (not ?J2) (and ?K2 (not ?M2)) (and ?M2 (not ?K2))) (or (not ?J2) (and ?G2 ?K2 ?L2) (and ?C2 ?M2 (not ?I2))) (or (not ?G2) ?H2) (or (not ?G2) (and ?C2 ?H2 ?I2)) (or (not ?C2) (and ?D2 (not ?F2)) (and ?F2 (not ?D2))) (or (not ?C2) (and ?Z1 ?D2 ?E2) (and ?V1 ?F2 (not ?B2))) (or (not ?Z1) ?A2) (or (not ?Z1) (and ?V1 ?A2 ?B2)) (or (not ?V1) (and ?W1 (not ?Y1)) (and ?Y1 (not ?W1))) (or (not ?V1) (and ?S1 ?W1 ?X1) (and ?O1 ?Y1 (not ?U1))) (or (not ?S1) ?T1) (or (not ?S1) (and ?O1 ?T1 ?U1)) (or (not ?O1) (and ?P1 (not ?R1)) (and ?R1 (not ?P1))) (or (not ?O1) (and ?L1 ?P1 ?Q1) (and ?H1 ?R1 (not ?N1))) (or (not ?L1) ?M1) (or (not ?L1) (and ?H1 ?M1 ?N1)) (or (not ?H1) (and ?I1 (not ?K1)) (and ?K1 (not ?I1))) (or (not ?H1) (and ?E1 ?I1 ?J1) (and ?A1 ?K1 (not ?G1))) (or (not ?E1) ?F1) (or (not ?E1) (and ?A1 ?F1 ?G1)) (or (not ?A1) (and ?B1 (not ?D1)) (and ?D1 (not ?B1))) (or (not ?A1) (and ?X ?B1 ?C1) (and ?T ?D1 (not ?Z))) (or (not ?X) ?Y) (or (not ?X) (and ?T ?Y ?Z)) (or (not ?T) ?V) (or (not ?T) (and ?U ?V (not ?W))) (= ?O5 (ite ?Z5 ?K4 1.0)))))
(=> $x611520 |cp-rel-bb1.i.i.i.i.i60.i.i|))))))))))))))))))))))))
)
(assert (not cp-rel-bb1.i.i.i.i.i60.i.i))
(check-sat)
